<number of tasks>
28

<cycle time>
205

<task times>
1 70
2 59
3 33
4 6
5 1
6 27
7 17
8 62
9 31
10 53
11 21
12 19
13 108
14 52
15 5
16 8
17 97
18 8
19 47
20 67
21 17
22 8
23 3
24 21
25 107
26 3
27 2
28 72

<precedence relations>
1,2
1,3
1,4
1,5
1,8
1,19
1,21
1,22
1,23
1,24
1,26
2,6
2,17
3,28
4,28
5,28
6,7
7,18
8,9
9,10
10,11
10,12
11,15
12,13
13,14
13,16
14,28
15,28
16,28
17,28
18,28
19,20
20,28
21,28
22,28
23,28
24,25
25,28
26,27
27,28

<setup times forward>
1,3:14
1,5:5
1,19:14
1,21:5
1,23:3
1,24:14
1,26:6
2,3:14
2,5:5
2,6:6
2,9:14
2,10:14
2,11:5
2,12:14
2,13:6
2,14:5
2,15:3
2,16:3
2,17:5
2,19:14
2,20:6
2,21:5
2,23:3
2,24:14
2,25:3
2,26:6
2,27:3
3,2:14
3,4:14
3,5:9
3,6:20
3,7:9
3,8:14
3,11:9
3,13:20
3,14:9
3,15:11
3,16:11
3,17:9
3,18:11
3,20:20
3,21:9
3,22:14
3,23:11
3,25:11
3,26:20
3,27:11
3,28:11
4,3:14
4,5:5
4,6:6
4,7:5
4,9:14
4,10:14
4,11:5
4,12:14
4,13:6
4,14:5
4,15:3
4,16:3
4,17:5
4,18:3
4,19:14
4,20:6
4,21:5
4,23:3
4,24:14
4,25:3
4,26:6
4,27:3
4,28:3
5,2:5
5,3:9
5,4:5
5,6:11
5,8:5
5,9:9
5,10:9
5,12:9
5,13:11
5,15:2
5,16:2
5,18:2
5,19:9
5,20:11
5,22:5
5,23:2
5,24:9
5,25:2
5,26:11
5,27:2
5,28:2
6,3:20
6,4:6
6,5:11
6,7:11
6,8:6
6,9:20
6,10:20
6,11:11
6,12:20
6,14:11
6,15:9
6,16:9
6,17:11
6,19:20
6,21:11
6,22:6
6,23:9
6,24:20
6,25:9
6,27:9
7,3:9
7,4:5
7,8:5
7,9:9
7,10:9
7,12:9
7,13:11
7,15:2
7,16:2
7,18:2
7,19:9
7,20:11
7,22:5
7,23:2
7,24:9
7,25:2
7,26:11
7,27:2
8,3:14
8,5:5
8,6:6
8,7:5
8,9:14
8,17:5
8,18:3
8,19:14
8,20:6
8,21:5
8,23:3
8,24:14
8,25:3
8,26:6
8,27:3
9,2:14
9,4:14
9,5:9
9,6:20
9,7:9
9,17:9
9,18:11
9,20:20
9,21:9
9,22:14
9,23:11
9,25:11
9,26:20
9,27:11
10,2:14
10,4:14
10,5:9
10,6:20
10,7:9
10,11:9
10,17:9
10,18:11
10,20:20
10,21:9
10,22:14
10,23:11
10,25:11
10,26:20
10,27:11
11,2:5
11,3:9
11,4:5
11,6:11
11,12:9
11,13:11
11,15:2
11,16:2
11,18:2
11,19:9
11,20:11
11,22:5
11,23:2
11,24:9
11,25:2
11,26:11
11,27:2
12,2:14
12,4:14
12,5:9
12,6:20
12,7:9
12,11:9
12,13:20
12,15:11
12,17:9
12,18:11
12,20:20
12,21:9
12,22:14
12,23:11
12,25:11
12,26:20
12,27:11
13,2:6
13,3:20
13,4:6
13,5:11
13,7:11
13,11:11
13,14:11
13,15:9
13,16:9
13,17:11
13,18:9
13,19:20
13,21:11
13,22:6
13,23:9
13,24:20
13,25:9
13,27:9
14,2:5
14,3:9
14,4:5
14,6:11
14,15:2
14,16:2
14,18:2
14,19:9
14,20:11
14,22:5
14,23:2
14,24:9
14,25:2
14,26:11
14,27:2
14,28:2
15,2:3
15,3:11
15,4:3
15,5:2
15,6:9
15,7:2
15,12:11
15,13:9
15,14:2
15,17:2
15,19:11
15,20:9
15,21:2
15,22:3
15,24:11
15,26:9
16,2:3
16,3:11
16,4:3
16,5:2
16,6:9
16,7:2
16,11:2
16,14:2
16,17:2
16,19:11
16,20:9
16,21:2
16,22:3
16,24:11
16,26:9
17,3:9
17,4:5
17,6:11
17,8:5
17,9:9
17,10:9
17,12:9
17,13:11
17,15:2
17,16:2
17,18:2
17,19:9
17,20:11
17,22:5
17,23:2
17,24:9
17,25:2
17,26:11
17,27:2
17,28:2
18,3:11
18,4:3
18,5:2
18,8:3
18,9:11
18,10:11
18,11:2
18,12:11
18,13:9
18,14:2
18,17:2
18,19:11
18,20:9
18,21:2
18,22:3
18,24:11
18,26:9
19,2:14
19,4:14
19,5:9
19,6:20
19,7:9
19,8:14
19,11:9
19,13:20
19,14:9
19,15:11
19,16:11
19,17:9
19,18:11
19,20:20
19,21:9
19,22:14
19,23:11
19,25:11
19,26:20
19,27:11
20,2:6
20,3:20
20,4:6
20,5:11
20,7:11
20,8:6
20,9:20
20,10:20
20,11:11
20,12:20
20,14:11
20,15:9
20,16:9
20,17:11
20,18:9
20,21:11
20,22:6
20,23:9
20,24:20
20,25:9
20,27:9
20,28:9
21,2:5
21,3:9
21,4:5
21,6:11
21,8:5
21,9:9
21,10:9
21,12:9
21,13:11
21,15:2
21,16:2
21,18:2
21,19:9
21,20:11
21,22:5
21,23:2
21,24:9
21,25:2
21,26:11
21,27:2
21,28:2
22,3:14
22,5:5
22,6:6
22,7:5
22,9:14
22,10:14
22,11:5
22,12:14
22,13:6
22,14:5
22,15:3
22,16:3
22,17:5
22,18:3
22,19:14
22,20:6
22,21:5
22,23:3
22,24:14
22,25:3
22,26:6
22,27:3
22,28:3
23,2:3
23,3:11
23,4:3
23,5:2
23,6:9
23,7:2
23,8:3
23,9:11
23,10:11
23,11:2
23,12:11
23,13:9
23,14:2
23,17:2
23,19:11
23,20:9
23,21:2
23,22:3
23,24:11
23,26:9
24,2:14
24,4:14
24,5:9
24,6:20
24,7:9
24,8:14
24,11:9
24,13:20
24,14:9
24,15:11
24,16:11
24,17:9
24,18:11
24,20:20
24,21:9
24,22:14
24,23:11
24,25:11
24,26:20
24,27:11
25,2:3
25,3:11
25,4:3
25,5:2
25,6:9
25,7:2
25,8:3
25,9:11
25,10:11
25,11:2
25,12:11
25,13:9
25,14:2
25,17:2
25,19:11
25,20:9
25,21:2
25,22:3
25,26:9
26,2:6
26,3:20
26,4:6
26,5:11
26,7:11
26,8:6
26,9:20
26,10:20
26,11:11
26,12:20
26,14:11
26,15:9
26,16:9
26,17:11
26,18:9
26,19:20
26,21:11
26,22:6
26,23:9
26,24:20
26,25:9
26,27:9
27,2:3
27,3:11
27,4:3
27,5:2
27,6:9
27,7:2
27,8:3
27,9:11
27,10:11
27,11:2
27,12:11
27,13:9
27,14:2
27,17:2
27,19:11
27,20:9
27,21:2
27,22:3
27,24:11

<setup times backward>
2,13:6
2,20:6
2,26:6
3,1:14
3,2:14
3,4:14
3,5:9
3,6:20
3,7:9
3,8:14
3,11:9
3,13:20
3,14:9
3,15:11
3,16:11
3,17:9
3,18:11
3,20:20
3,21:9
3,22:14
3,23:11
3,25:11
3,26:20
3,27:11
4,6:6
4,13:6
4,20:6
4,26:6
5,1:5
5,2:5
5,4:5
5,6:11
5,8:5
5,13:11
5,15:2
5,16:2
5,18:2
5,20:11
5,22:5
5,23:2
5,25:2
5,26:11
5,27:2
7,1:5
7,2:5
7,4:5
7,6:11
7,8:5
7,13:11
7,15:2
7,16:2
7,20:11
7,22:5
7,23:2
7,25:2
7,26:11
7,27:2
8,6:6
8,20:6
8,26:6
9,1:14
9,2:14
9,4:14
9,5:9
9,6:20
9,7:9
9,8:14
9,17:9
9,18:11
9,20:20
9,21:9
9,22:14
9,23:11
9,25:11
9,26:20
9,27:11
10,1:14
10,2:14
10,4:14
10,5:9
10,6:20
10,7:9
10,8:14
10,17:9
10,18:11
10,20:20
10,21:9
10,22:14
10,23:11
10,25:11
10,26:20
10,27:11
11,1:5
11,2:5
11,4:5
11,6:11
11,8:5
11,13:11
11,16:2
11,18:2
11,20:11
11,22:5
11,23:2
11,25:2
11,26:11
11,27:2
12,1:14
12,2:14
12,4:14
12,5:9
12,6:20
12,7:9
12,8:14
12,11:9
12,15:11
12,17:9
12,18:11
12,20:20
12,21:9
12,22:14
12,23:11
12,25:11
12,26:20
12,27:11
14,1:5
14,2:5
14,4:5
14,6:11
14,8:5
14,13:11
14,15:2
14,16:2
14,18:2
14,20:11
14,22:5
14,23:2
14,25:2
14,26:11
14,27:2
15,1:3
15,2:3
15,4:3
15,6:9
15,8:3
15,13:9
15,20:9
15,22:3
15,26:9
16,1:3
16,2:3
16,4:3
16,6:9
16,8:3
16,13:9
16,20:9
16,22:3
16,26:9
17,1:5
17,2:5
17,4:5
17,6:11
17,8:5
17,13:11
17,15:2
17,16:2
17,18:2
17,20:11
17,22:5
17,23:2
17,25:2
17,26:11
17,27:2
18,1:3
18,2:3
18,4:3
18,6:9
18,8:3
18,13:9
18,20:9
18,22:3
18,26:9
19,1:14
19,2:14
19,4:14
19,5:9
19,6:20
19,7:9
19,8:14
19,11:9
19,13:20
19,14:9
19,15:11
19,16:11
19,17:9
19,18:11
19,21:9
19,22:14
19,23:11
19,25:11
19,26:20
19,27:11
21,1:5
21,2:5
21,4:5
21,6:11
21,8:5
21,13:11
21,15:2
21,16:2
21,18:2
21,20:11
21,22:5
21,23:2
21,25:2
21,26:11
21,27:2
22,6:6
22,13:6
22,20:6
22,26:6
23,1:3
23,2:3
23,4:3
23,6:9
23,8:3
23,13:9
23,20:9
23,22:3
23,26:9
24,1:14
24,2:14
24,4:14
24,5:9
24,6:20
24,7:9
24,8:14
24,11:9
24,13:20
24,14:9
24,15:11
24,16:11
24,17:9
24,18:11
24,20:20
24,21:9
24,22:14
24,23:11
24,26:20
24,27:11
25,1:3
25,2:3
25,4:3
25,6:9
25,8:3
25,13:9
25,20:9
25,22:3
25,26:9
27,1:3
27,2:3
27,4:3
27,6:9
27,8:3
27,13:9
27,20:9
27,22:3
27,26:9
28,1:3
28,2:3
28,4:3
28,6:9
28,8:3
28,13:9
28,20:9
28,22:3
28,26:9

<end>

<optimal SALBP-1 value>
5


<rand seed>
467321153

